variable temperature equal 300
variable randomSeed equal 15973

# Initialise parameters for units and box type
units       real
dimension   3
boundary    p p p
atom_style  full

# Initital pair style and bond parameters
bond_style  harmonic

dielectric  74.911

# Create new simulation box or load existing box
read_data       droplets_struct.dat

# Set pair parameters
include         param_HPS_Urry.dat

# reset_atom_ids
velocity        all create ${temperature} ${randomSeed}

special_bonds fene

# neighbour list settings
neighbor  3.0 multi

# Timestep and computational parameters
comm_style      tiled
timestep        10

# timer full

# Relax sim by performing minimisation (this is helpful if we change the potential or sequence)
# min_style       fire
# timestep        0.0000001
# minimize 0.0 1.0e-8 100 1000

neigh_modify    every 20 delay 0

fix             fxnve   all nve
fix             fxlange all langevin ${temperature} ${temperature} 100000.0 ${randomSeed}
fix             fxbal   all balance 1000 1.1 rcb


# compute         myChunk2 all chunk/atom bin/1d z lower 0.02 units reduced
# fix             densityRegions2 all ave/chunk 1000 80 100000 myChunk2 density/mass file densities_chunked2.dat

fix fixCOM all recenter INIT INIT INIT  # this helps to prevent drift of the interfaces and makes it easier to average over many measurements

# Thermo output settings
thermo          100
thermo_style    custom step pe ebond evdwl ecoul ke temp press density
thermo_modify   flush yes

# dump            1 all custom 1 result.lammpstrj id mol type q x y z
log     D_p4096_r03_job4.log

# Equilibration
run             10000

# write final configuration
# write_data      final-structure.dat nocoeff

